&bands
  outdir='./tmp/'
  prefix='CoO'
  filband='CoO.bands.dat'
/
